************************************************************************
file with basedata            : J12046_.BAS
initial value random generator: 1162411629
************************************************************************
projects                      :  1
jobs (incl. supersource/sink ):  122
horizon                       :  644
RESOURCES
  - renewable                 :  4   R
  - nonrenewable              :  0   N
  - doubly constrained        :  0   D
************************************************************************
PROJECT INFORMATION:
pronr.  #jobs rel.date duedate tardcost  MPM-Time
    1    120      0       96       54       96
************************************************************************
PRECEDENCE RELATIONS:
jobnr.    #modes  #successors   successors
   1        1          3           2   3   4
   2        1          3          28  44  81
   3        1          3           5   6   9
   4        1          3          21  46  62
   5        1          3           7   8  12
   6        1          3          10  19  25
   7        1          3          14  15  16
   8        1          3          45  60  76
   9        1          3          11  40  81
  10        1          3          17  22  37
  11        1          3          13  32  33
  12        1          3          24  39  42
  13        1          3          63  66  87
  14        1          2          54  73
  15        1          3          18  74 118
  16        1          2          48  50
  17        1          3          20  23  29
  18        1          3          34  35  43
  19        1          3          43  62  96
  20        1          3          30  42  63
  21        1          3          26  47  66
  22        1          3          29  40  54
  23        1          3          27  28  58
  24        1          3          31  49  56
  25        1          3          40  67  91
  26        1          3          36  44  80
  27        1          1          41
  28        1          3          50  89  94
  29        1          3          49  52  69
  30        1          2          64  76
  31        1          1          65
  32        1          3          41  53  92
  33        1          3          44  78 119
  34        1          3          70 114 115
  35        1          2          47  51
  36        1          3          59  63  76
  37        1          3          38  67 105
  38        1          3          55  57  97
  39        1          3          55  61 113
  40        1          1         103
  41        1          3          45  79  96
  42        1          3          65  71 102
  43        1          2          61  82
  44        1          1          94
  45        1          3          50  55 118
  46        1          3          52  54  65
  47        1          3          61  84 121
  48        1          2          69  75
  49        1          3          60  88 100
  50        1          1          72
  51        1          3          70  71 111
  52        1          1          97
  53        1          3          68  79  84
  54        1          3          64  81 109
  55        1          1         106
  56        1          2          77  85
  57        1          3          62  64  89
  58        1          2          85  91
  59        1          3          60  95  99
  60        1          3          67  93 112
  61        1          1          83
  62        1          2          68 111
  63        1          2          93 110
  64        1          2          83  96
  65        1          3          73  89  90
  66        1          3          82  86  91
  67        1          2          75  86
  68        1          2          72  80
  69        1          2          74  77
  70        1          3          75 100 101
  71        1          2          72 103
  72        1          1         104
  73        1          2          77 101
  74        1          3          78  80  84
  75        1          2          83  87
  76        1          3          88  97  98
  77        1          3          86  92 104
  78        1          2          82  94
  79        1          3          85  87  99
  80        1          1         108
  81        1          3          98 106 112
  82        1          2          90 100
  83        1          1         108
  84        1          1         112
  85        1          3          88  90  98
  86        1          1         113
  87        1          1         108
  88        1          2          93 109
  89        1          2         104 109
  90        1          2          95 103
  91        1          2          92 111
  92        1          1         110
  93        1          1         121
  94        1          1          95
  95        1          1         113
  96        1          1         116
  97        1          2          99 101
  98        1          1         102
  99        1          1         114
 100        1          2         102 105
 101        1          2         106 107
 102        1          1         116
 103        1          2         105 115
 104        1          1         107
 105        1          1         107
 106        1          1         120
 107        1          1         116
 108        1          1         117
 109        1          1         110
 110        1          1         118
 111        1          1         117
 112        1          1         114
 113        1          1         115
 114        1          2         117 119
 115        1          1         120
 116        1          1         121
 117        1          1         120
 118        1          1         119
 119        1          1         122
 120        1          1         122
 121        1          1         122
 122        1          0        
************************************************************************
REQUESTS/DURATIONS:
jobnr. mode duration  R 1  R 2  R 3  R 4
------------------------------------------------------------------------
  1      1     0       0    0    0    0
  2      1     5       0    0    0   10
  3      1     8       0    0    0    8
  4      1     2       3    0    0    0
  5      1     4      10    0    6    0
  6      1     7       1    0    0    1
  7      1     2       0    1    0    0
  8      1     2       0    2    0    6
  9      1     4       0    7    4    0
 10      1     6      10    5    2    0
 11      1     8       0    0   10    0
 12      1     2       0   10    0   10
 13      1     2       0    0    0   10
 14      1    10       0    0    9    3
 15      1     7       4    0    0    7
 16      1     5       0    0    0    6
 17      1     2       0    0    2    8
 18      1     4       0    8    0    0
 19      1     8       1    4    8    0
 20      1     4       0    9   10    0
 21      1     7       7    2   10    0
 22      1     6       7    0    0    1
 23      1    10       7    0    0    0
 24      1     2       0    9   10    0
 25      1     1       0    0    8    1
 26      1     1       2    1    0    0
 27      1     4       2    7    6    0
 28      1     7       0    6    0    0
 29      1    10       1    2    5    0
 30      1     9       0    0    3    0
 31      1     1       0    9    0    0
 32      1     2      10    9    0    0
 33      1     7       8    6    3    0
 34      1     1       4    0    0    9
 35      1     4       0    5    2    0
 36      1    10       0    5    0    3
 37      1     1       0    9    0    0
 38      1     9       2    1    6    2
 39      1     5       8    0    3    4
 40      1     2       0    0    6    0
 41      1    10       1    2    5    6
 42      1     9       2    0    9    0
 43      1     4       0    0    0    7
 44      1     7       0    1    0    3
 45      1     4       3    1    9    0
 46      1     4       0    0    8    0
 47      1     3       2    0    0    0
 48      1     8       3    5    0    7
 49      1     6       0    8    1    0
 50      1     9       9    0    1    0
 51      1     9       0    8    0    9
 52      1     5       1    2   10    0
 53      1     3       0    0    7    0
 54      1     4       0    0    1    0
 55      1     8       1    9    0    0
 56      1     7       0    0    6    7
 57      1    10       0    5   10    0
 58      1    10       0    0    0   10
 59      1     2       8    0    0    0
 60      1     1       6    4    0    1
 61      1     3       0    0    7    0
 62      1     4      10    5    0    0
 63      1    10       1    0    2    6
 64      1     4       0    0    2    0
 65      1     3       8    0    9    0
 66      1     8       7    3    0   10
 67      1     8       0    7    0    1
 68      1     8       0    6    0    1
 69      1     4       0    5    4    1
 70      1     8       0    1    6   10
 71      1     3       5    4    0    0
 72      1     7       0    8    3    0
 73      1     1       9    7    0    6
 74      1     2       0    8    2    0
 75      1     6       7    3    0    2
 76      1     3       6    8    8    0
 77      1     6       0    1    3    0
 78      1     4       3    0    0    7
 79      1     4       0    5    0    0
 80      1     7       0    0    3    0
 81      1     8       6    3    0    6
 82      1     3       0    0    3   10
 83      1     1       0    5    2    6
 84      1     9       0    8    0    8
 85      1     1       5    7    0    0
 86      1     7       0    0    1    0
 87      1    10       9    7    0    8
 88      1     9       0    7   10    1
 89      1     6       0   10    2    0
 90      1     4       0    7    0    7
 91      1     9       1    9    5    6
 92      1     3       0    7    0    0
 93      1     3       0    0    1    4
 94      1     1       0    4    0   10
 95      1     2       0    0    1    0
 96      1     5       5    4    0    6
 97      1    10       2    0    8    1
 98      1     9       0    7    0    2
 99      1     5       5    0    8    0
100      1     8       0    7    0    6
101      1    10       0    6    0   10
102      1     3       0    0    0    5
103      1     6      10   10    0    0
104      1     4       6    0    0   10
105      1     9       5    5    4   10
106      1     2      10    0    0    7
107      1     6       0    0    4    2
108      1     3       1    0    0    0
109      1     2       1    0    6    0
110      1     1       0    6    0    0
111      1     4       2    5    9    5
112      1     3       0    7    5    0
113      1     8       4    0    0    0
114      1     3       0    4   10    0
115      1     5       9    7    0    0
116      1    10       0    9    0    0
117      1    10       6    4    5    1
118      1     6       9    0    0    0
119      1     7       6    0    0    0
120      1     3       6    6    3    0
121      1     9       0    6    0    0
122      1     0       0    0    0    0
************************************************************************
RESOURCEAVAILABILITIES:
  R 1  R 2  R 3  R 4
   13   16   14   13
************************************************************************
